%oldchk=wferwfwe.log
%chk=abrakadabra
basis_set
mehod
method 2

Test Calculation

0 1
C -0.14000596 0.81536301 0.00880387
C 1.26137761 0.81536740 0.00201588
C 1.96205375 2.02881834 -0.00004249
C 1.26121959 3.24217972 -0.00035002
C -0.14016398 3.24201483 0.00643813
C -0.84152002 2.02865888 0.02365363
H -0.67473845 -0.11142050 0.00301619
H 1.79634016 -0.11129286 -0.00196304
H 1.79606145 4.16890012 -0.00613580
H -0.67501716 4.16871565 -0.00115651
N 3.43205109 2.02891133 -0.00284166
O 4.05213158 2.84056982 0.69598910
O 4.04956835 1.21733113 -0.70402906
N -2.31123562 2.02853498 -0.00526085
H -2.62638353 2.22501743 -0.93374157
H -2.65015018 1.13168768 0.27899578
