keywords: gen_e_field_direction(0, 0, 1, 0.0001, 10, 2, cartesian, log) read_geom()
automatically_update_kw

***start_gaussian_file***
%nproc=8
%mem=24Gb
%chk=lib_bnnt-3_LC-BLYP.chk
#P cam-b3lyp/6-31g(d')
nosymm gfinput pop=full polar=(dcshg,cubic) cphf=sg1grid

Log Step Example

0 2
@/Users/petrumilev/Documents/projects_python/project_girona_donostia/Examples/Create_Input_Files/Example8/geometry.txt



